param set_len = 24;
param target_sum = 969565695;
param values := [0] 133569680 [1] 65289749 [2] 120663506 [3] 4725561 [4] 31892699 [5] 99876750 [6] 77302030 [7] 62715979 [8] 2167681 [9] 122466121 [10] 103422154 [11] 82665145 [12] 65624943 [13] 96359851 [14] 111966190 [15] 77973500 [16] 53933495 [17] 508434 [18] 76932701 [19] 66243907 [20] 78303119 [21] 43170824 [22] 70428802 [23] 132652976 ;
